NAME : in_house_7_7
TYPE : TSP
DIMENSION : 7
EDGE_WEIGHT_TYPE : EXPLICIT
EDGE_WEIGHT_FORMAT : UPPER_ROW
COMMENT : INVERSION_SHIFT=4
EDGE_WEIGHT_SECTION
29
12
27
47
47
31
29
48
13
12
5
43
34
38
33
25
44
12
22
45
28
